(set-logic ALL)
(declare-const BAV1 Bool)
(declare-const BAV2 Bool)
(declare-const BAV3 Bool)
(get-model)
(declare-const BAV4 Bool)
(get-model)
(declare-const GEN7 Int)
(declare-const GEN6 Int)
(declare-const GEN5 Int)
(declare-const GEN4 Int)
(declare-const GEN3 Int)
(declare-const GEN2 Int)
(declare-const GEN1 Int)
(define-fun f ((x Int)) Int x)
(declare-fun h (Int) Int)
(assert (forall ((x Int)) (= (h x) GEN1)))
(push 1)
(define-fun-rec g ((x Int)) Int (ite (<= x 0) 0 (+ (g x) x)))
(assert (= BAV1 (forall ((x Int)) (= (h x) GEN1))))
(assert (= BAV2 (= (f GEN2) GEN3)))
(assert (= BAV3 (= (g GEN4) GEN5)))
(assert (= BAV4 (= (h GEN6) GEN7)))
(check-sat)
(get-model)
(pop 1)
(declare-fun g (Int) Int)
(push 1)
(assert (= (f GEN2) GEN3))
(check-sat)
(pop 1)
(push 1)
(assert (= (g GEN4) GEN5))
(check-sat)
(pop 1)
(push 1)
(assert (= (h GEN6) GEN7))
(check-sat)
(pop 1)